(set-logic QF_S)
(declare-fun var0 () String)
(assert (RegexIn var0 (RegexConcat (RegexPlus (RegexStar (Str2Reg "000"))) (RegexConcat (RegexStar (RegexUnion (Str2Reg "1") (Str2Reg "2"))) (RegexConcat (RegexPlus (RegexPlus (Str2Reg "33"))) (RegexConcat (RegexStar (RegexPlus (Str2Reg "444"))) (RegexConcat (RegexUnion (RegexPlus (Str2Reg "5")) (RegexPlus (Str2Reg "666"))) (RegexConcat (RegexStar (RegexStar (Str2Reg "77"))) (RegexConcat (RegexStar (RegexUnion (Str2Reg "88") (Str2Reg "99"))) (RegexConcat (RegexUnion (RegexStar (Str2Reg "aa")) (RegexStar (Str2Reg "bbb"))) (RegexConcat (RegexUnion (RegexUnion (Str2Reg "c") (Str2Reg "d")) (RegexUnion (Str2Reg "e") (Str2Reg "ff"))) (RegexConcat (RegexStar (RegexUnion (Str2Reg "ggg") (Str2Reg "hh"))) (RegexConcat (RegexPlus (RegexPlus (Str2Reg "ii"))) (RegexConcat (RegexStar (RegexPlus (Str2Reg "j"))) (RegexConcat (RegexPlus (RegexUnion (Str2Reg "kkk") (Str2Reg "l"))) (RegexConcat (RegexUnion (RegexUnion (Str2Reg "mmm") (Str2Reg "n")) (RegexUnion (Str2Reg "oo") (Str2Reg "p"))) (RegexConcat (RegexPlus (RegexStar (Str2Reg "q"))) (RegexConcat (RegexStar (RegexUnion (Str2Reg "rrr") (Str2Reg "ss"))) (RegexConcat (RegexStar (RegexStar (Str2Reg "ttt"))) (RegexConcat (RegexPlus (RegexPlus (Str2Reg "uuu"))) (RegexConcat (RegexPlus (RegexPlus (Str2Reg "vvv"))) (RegexConcat (RegexPlus (RegexStar (Str2Reg "www"))) (RegexConcat (RegexStar (RegexStar (Str2Reg "x"))) (RegexConcat (RegexUnion (RegexUnion (Str2Reg "y") (Str2Reg "z")) (RegexUnion (Str2Reg "A") (Str2Reg "B"))) (RegexConcat (RegexPlus (RegexPlus (Str2Reg "CCC"))) (RegexConcat (RegexPlus (RegexUnion (Str2Reg "D") (Str2Reg "EE"))) (RegexConcat (RegexStar (RegexPlus (Str2Reg "FF"))) (RegexConcat (RegexUnion (RegexStar (Str2Reg "G")) (RegexStar (Str2Reg "H"))) (RegexConcat (RegexStar (RegexStar (Str2Reg "III"))) (RegexConcat (RegexUnion (RegexPlus (Str2Reg "JJJ")) (RegexPlus (Str2Reg "KK"))) (RegexConcat (RegexPlus (RegexPlus (Str2Reg "LL"))) (RegexConcat (RegexStar (RegexPlus (Str2Reg "MM"))) (RegexConcat (RegexStar (RegexPlus (Str2Reg "NNN"))) (RegexConcat (RegexStar (RegexPlus (Str2Reg "OOO"))) (RegexConcat (RegexPlus (RegexUnion (Str2Reg "P") (Str2Reg "QQ"))) (RegexConcat (RegexPlus (RegexStar (Str2Reg "RRR"))) (RegexConcat (RegexUnion (RegexStar (Str2Reg "S")) (RegexStar (Str2Reg "TT"))) (RegexConcat (RegexStar (RegexStar (Str2Reg "UUU"))) (RegexConcat (RegexUnion (RegexPlus (Str2Reg "V")) (RegexPlus (Str2Reg "W"))) (RegexConcat (RegexPlus (RegexStar (Str2Reg "XX"))) (RegexConcat (RegexUnion (RegexPlus (Str2Reg "YY")) (RegexPlus (Str2Reg "ZZZ"))) (RegexConcat (RegexUnion (RegexPlus (Str2Reg "!")) (RegexPlus (Str2Reg "\""))) (RegexConcat (RegexPlus (RegexUnion (Str2Reg "###") (Str2Reg "$"))) (RegexConcat (RegexStar (RegexStar (Str2Reg "%%"))) (RegexConcat (RegexStar (RegexStar (Str2Reg "&&&"))) (RegexConcat (RegexStar (RegexUnion (Str2Reg "''") (Str2Reg "((("))) (RegexConcat (RegexStar (RegexPlus (Str2Reg ")))"))) (RegexConcat (RegexStar (RegexPlus (Str2Reg "*"))) (RegexConcat (RegexPlus (RegexUnion (Str2Reg "+++") (Str2Reg ",,,"))) (RegexConcat (RegexPlus (RegexStar (Str2Reg "---"))) (RegexConcat (RegexUnion (RegexPlus (Str2Reg ".")) (RegexPlus (Str2Reg "//"))) (RegexConcat (RegexUnion (RegexPlus (Str2Reg ":")) (RegexPlus (Str2Reg ";;;"))) (RegexConcat (RegexStar (RegexUnion (Str2Reg "<<") (Str2Reg "="))) (RegexConcat (RegexStar (RegexPlus (Str2Reg ">>>"))) (RegexConcat (RegexStar (RegexUnion (Str2Reg "??") (Str2Reg "@"))) (RegexConcat (RegexPlus (RegexStar (Str2Reg "[["))) (RegexConcat (RegexUnion (RegexPlus (Str2Reg "\\\\")) (RegexPlus (Str2Reg "]"))) (RegexConcat (RegexPlus (RegexUnion (Str2Reg "^^") (Str2Reg "__"))) (RegexConcat (RegexUnion (RegexUnion (Str2Reg "```") (Str2Reg "{{")) (RegexUnion (Str2Reg "|") (Str2Reg "}"))) (RegexConcat (RegexStar (RegexStar (Str2Reg "~~~"))) (RegexConcat (RegexUnion (RegexPlus (Str2Reg "0")) (RegexPlus (Str2Reg "111"))) (RegexConcat (RegexUnion (RegexPlus (Str2Reg "2")) (RegexPlus (Str2Reg "333"))) (RegexConcat (RegexStar (RegexUnion (Str2Reg "444") (Str2Reg "5"))) (RegexConcat (RegexPlus (RegexUnion (Str2Reg "666") (Str2Reg "7"))) (RegexConcat (RegexStar (RegexPlus (Str2Reg "8"))) (RegexConcat (RegexStar (RegexPlus (Str2Reg "9"))) (RegexConcat (RegexStar (RegexStar (Str2Reg "aaa"))) (RegexConcat (RegexUnion (RegexPlus (Str2Reg "bb")) (RegexPlus (Str2Reg "ccc"))) (RegexConcat (RegexUnion (RegexUnion (Str2Reg "d") (Str2Reg "eee")) (RegexUnion (Str2Reg "f") (Str2Reg "g"))) (RegexConcat (RegexStar (RegexPlus (Str2Reg "hhh"))) (RegexConcat (RegexStar (RegexStar (Str2Reg "iii"))) (RegexConcat (RegexUnion (RegexStar (Str2Reg "j")) (RegexStar (Str2Reg "kkk"))) (RegexConcat (RegexUnion (RegexPlus (Str2Reg "ll")) (RegexPlus (Str2Reg "mmm"))) (RegexConcat (RegexStar (RegexStar (Str2Reg "n"))) (RegexConcat (RegexStar (RegexPlus (Str2Reg "o"))) (RegexConcat (RegexPlus (RegexStar (Str2Reg "pp"))) (RegexConcat (RegexPlus (RegexPlus (Str2Reg "q"))) (RegexConcat (RegexStar (RegexUnion (Str2Reg "rrr") (Str2Reg "sss"))) (RegexConcat (RegexPlus (RegexUnion (Str2Reg "tt") (Str2Reg "uu"))) (RegexConcat (RegexUnion (RegexPlus (Str2Reg "vv")) (RegexPlus (Str2Reg "w"))) (RegexConcat (RegexUnion (RegexStar (Str2Reg "x")) (RegexStar (Str2Reg "yy"))) (RegexConcat (RegexPlus (RegexStar (Str2Reg "zzz"))) (RegexConcat (RegexPlus (RegexUnion (Str2Reg "AAA") (Str2Reg "B"))) (RegexConcat (RegexPlus (RegexPlus (Str2Reg "C"))) (RegexConcat (RegexPlus (RegexUnion (Str2Reg "DDD") (Str2Reg "EE"))) (RegexConcat (RegexStar (RegexUnion (Str2Reg "FFF") (Str2Reg "GGG"))) (RegexConcat (RegexPlus (RegexUnion (Str2Reg "HHH") (Str2Reg "III"))) (RegexConcat (RegexPlus (RegexPlus (Str2Reg "J"))) (RegexConcat (RegexUnion (RegexUnion (Str2Reg "K") (Str2Reg "LLL")) (RegexUnion (Str2Reg "MM") (Str2Reg "NNN"))) (RegexConcat (RegexPlus (RegexPlus (Str2Reg "OOO"))) (RegexConcat (RegexStar (RegexUnion (Str2Reg "PP") (Str2Reg "QQ"))) (RegexConcat (RegexPlus (RegexStar (Str2Reg "RR"))) (RegexConcat (RegexUnion (RegexUnion (Str2Reg "SSS") (Str2Reg "TT")) (RegexUnion (Str2Reg "U") (Str2Reg "V"))) (RegexConcat (RegexUnion (RegexStar (Str2Reg "W")) (RegexStar (Str2Reg "XXX"))) (RegexConcat (RegexUnion (RegexPlus (Str2Reg "Y")) (RegexPlus (Str2Reg "Z"))) (RegexConcat (RegexPlus (RegexStar (Str2Reg "!!"))) (RegexConcat (RegexPlus (RegexUnion (Str2Reg "\"\"\"") (Str2Reg "#"))) (RegexConcat (RegexUnion (RegexPlus (Str2Reg "$")) (RegexPlus (Str2Reg "%%"))) (RegexConcat (RegexPlus (RegexStar (Str2Reg "&"))) (RegexConcat (RegexPlus (RegexStar (Str2Reg "'''"))) (RegexConcat (RegexUnion (RegexUnion (Str2Reg "(") (Str2Reg ")")) (RegexUnion (Str2Reg "***") (Str2Reg "++"))) (RegexConcat (RegexPlus (RegexUnion (Str2Reg ",,,") (Str2Reg "--"))) (RegexConcat (RegexStar (RegexStar (Str2Reg ".."))) (RegexConcat (RegexPlus (RegexPlus (Str2Reg "///"))) (RegexConcat (RegexPlus (RegexStar (Str2Reg ":::"))) (RegexConcat (RegexUnion (RegexStar (Str2Reg ";")) (RegexStar (Str2Reg "<<"))) (RegexConcat (RegexUnion (RegexStar (Str2Reg "=")) (RegexStar (Str2Reg ">>"))) (RegexConcat (RegexUnion (RegexStar (Str2Reg "?")) (RegexStar (Str2Reg "@@@"))) (RegexConcat (RegexUnion (RegexPlus (Str2Reg "[[")) (RegexPlus (Str2Reg "\\"))) (RegexConcat (RegexPlus (RegexPlus (Str2Reg "]]]"))) (RegexConcat (RegexPlus (RegexUnion (Str2Reg "^^") (Str2Reg "___"))) (RegexConcat (RegexUnion (RegexStar (Str2Reg "`")) (RegexStar (Str2Reg "{{{"))) (RegexConcat (RegexStar (RegexUnion (Str2Reg "|") (Str2Reg "}}"))) (RegexConcat (RegexPlus (RegexStar (Str2Reg "~~"))) (RegexUnion (RegexUnion (Str2Reg "0") (Str2Reg "111")) (RegexUnion (Str2Reg "2") (Str2Reg "333")))))))))))))))))))))))))))))))))))))))))))))))))))))))))))))))))))))))))))))))))))))))))))))))))))))))))))))))))))))
(check-sat)